p cnf 256 292
-1 2 3 4 5 6 8 9 10 12 13 14 15 16 17 18 19 20 21 22 23 24 25 26 27 28 29 30 31 38 39 40 41 42 43 44 45 46 96 97 98 99 100 102 103 104 125 175 176 182 183 193 194 195 196 197 198 199 200 201 202 203 204 230 233 234 235 236 237 238 239 240 241 242 243 244 -245 -246 -255 -35 -52 -91 0 
-2 1 3 4 5 6 8 9 10 12 13 14 15 16 17 18 19 20 21 22 23 24 25 26 27 28 29 30 31 38 39 40 41 42 43 44 45 46 96 97 98 99 100 102 103 104 125 175 176 182 183 193 194 195 196 197 198 199 200 201 202 203 204 230 233 234 235 236 237 238 239 240 241 242 243 244 -245 -246 -255 -35 -52 -91 0 
-3 1 2 4 5 6 8 9 10 12 13 14 15 16 17 18 19 20 21 22 23 24 25 26 27 28 29 30 31 38 39 40 41 42 43 44 45 46 96 97 98 99 100 102 103 104 125 175 176 182 183 193 194 195 196 197 198 199 200 201 202 203 204 230 233 234 235 236 237 238 239 240 241 242 243 244 -245 -246 -255 -35 -52 -91 0 
-4 1 2 3 5 6 8 9 10 12 13 14 15 16 17 18 19 20 21 22 23 24 25 26 27 28 29 30 31 38 39 40 41 42 43 44 45 46 96 97 98 99 100 102 103 104 125 175 176 182 183 193 194 195 196 197 198 199 200 201 202 203 204 230 233 234 235 236 237 238 239 240 241 242 243 244 -245 -246 -255 -35 -52 -91 0 
-5 1 2 3 4 6 8 9 10 12 13 14 15 16 17 18 19 20 21 22 23 24 25 26 27 28 29 30 31 38 39 40 41 42 43 44 45 46 96 97 98 99 100 102 103 104 125 175 176 182 183 193 194 195 196 197 198 199 200 201 202 203 204 230 233 234 235 236 237 238 239 240 241 242 243 244 -245 -246 -255 -35 -52 -91 0 
-6 1 2 3 4 5 8 9 10 12 13 14 15 16 17 18 19 20 21 22 23 24 25 26 27 28 29 30 31 38 39 40 41 42 43 44 45 46 96 97 98 99 100 102 103 104 125 175 176 182 183 193 194 195 196 197 198 199 200 201 202 203 204 230 233 234 235 236 237 238 239 240 241 242 243 -7 132 186 244 -245 -246 -255 -35 -52 -91 0 
-8 1 2 3 4 5 6 9 10 12 13 14 15 16 17 18 19 20 21 22 23 24 25 26 27 28 29 30 31 38 39 40 41 42 43 44 45 46 96 97 98 99 100 102 103 104 125 175 176 182 183 193 194 195 196 197 198 199 200 201 202 203 204 230 233 234 235 236 237 238 239 240 241 242 243 244 -245 -246 -255 -35 -52 -91 0 
-9 1 2 3 4 5 6 8 10 12 13 14 15 16 17 18 19 20 21 22 23 24 25 26 27 28 29 30 31 38 39 40 41 42 43 44 45 46 96 97 98 99 100 102 103 104 125 175 176 182 183 193 194 195 196 197 198 199 200 201 202 203 204 230 233 234 235 236 237 238 239 240 241 242 243 244 -245 -246 -255 -35 -52 -91 0 
-10 1 2 3 4 5 6 8 9 12 13 14 15 16 17 18 19 20 21 22 23 24 25 26 27 28 29 30 31 38 39 40 41 42 43 44 45 46 96 97 98 99 100 102 103 104 125 175 176 182 183 193 194 195 196 197 198 199 200 201 202 203 204 230 233 234 235 236 237 238 239 240 241 242 243 244 -245 -246 -255 -35 -52 -91 0 
-11 101 115 156 244 -245 -246 -255 -35 -52 -91 0 
-12 1 2 3 4 5 6 8 9 10 13 14 15 16 17 18 19 20 21 22 23 24 25 26 27 28 29 30 31 38 39 40 41 42 43 44 45 46 96 97 98 99 100 102 103 104 125 175 176 182 183 193 194 195 196 197 198 199 200 201 202 203 204 230 233 234 235 236 237 238 239 240 241 242 243 244 -245 -246 -255 -35 -52 -91 0 
-13 1 2 3 4 5 6 8 9 10 12 14 15 16 17 18 19 20 21 22 23 24 25 26 27 28 29 30 31 38 39 40 41 42 43 44 45 46 96 97 98 99 100 102 103 104 125 175 176 182 183 193 194 195 196 197 198 199 200 201 202 203 204 230 233 234 235 236 237 238 239 240 241 242 243 244 -245 -246 -255 -35 -52 -91 0 
-14 1 2 3 4 5 6 8 9 10 12 13 15 16 17 18 19 20 21 22 23 24 25 26 27 28 29 30 31 38 39 40 41 42 43 44 45 46 96 97 98 99 100 102 103 104 125 175 176 182 183 193 194 195 196 197 198 199 200 201 202 203 204 230 233 234 235 236 237 238 239 240 241 242 243 244 -245 -246 -255 -35 -52 -91 0 
-15 1 2 3 4 5 6 8 9 10 12 13 14 16 17 18 19 20 21 22 23 24 25 26 27 28 29 30 31 38 39 40 41 42 43 44 45 46 96 97 98 99 100 102 103 104 125 175 176 182 183 193 194 195 196 197 198 199 200 201 202 203 204 230 233 234 235 236 237 238 239 240 241 242 243 244 -245 -246 -255 -35 -52 -91 0 
-16 1 2 3 4 5 6 8 9 10 12 13 14 15 17 18 19 20 21 22 23 24 25 26 27 28 29 30 31 38 39 40 41 42 43 44 45 46 96 97 98 99 100 102 103 104 125 175 176 182 183 193 194 195 196 197 198 199 200 201 202 203 204 230 233 234 235 236 237 238 239 240 241 242 243 244 -245 -246 -255 -35 -52 -91 0 
-17 1 2 3 4 5 6 8 9 10 12 13 14 15 16 18 19 20 21 22 23 24 25 26 27 28 29 30 31 38 39 40 41 42 43 44 45 46 96 97 98 99 100 102 103 104 125 175 176 182 183 193 194 195 196 197 198 199 200 201 202 203 204 230 233 234 235 236 237 238 239 240 241 242 243 244 -245 -246 -255 -35 -52 -91 0 
-18 1 2 3 4 5 6 8 9 10 12 13 14 15 16 17 19 20 21 22 23 24 25 26 27 28 29 30 31 38 39 40 41 42 43 44 45 46 96 97 98 99 100 102 103 104 125 175 176 182 183 193 194 195 196 197 198 199 200 201 202 203 204 230 233 234 235 236 237 238 239 240 241 242 243 244 -245 -246 -255 -35 -52 -91 0 
-19 1 2 3 4 5 6 8 9 10 12 13 14 15 16 17 18 20 21 22 23 24 25 26 27 28 29 30 31 38 39 40 41 42 43 44 45 46 96 97 98 99 100 102 103 104 125 175 176 182 183 193 194 195 196 197 198 199 200 201 202 203 204 230 233 234 235 236 237 238 239 240 241 242 243 244 -245 -246 -255 -35 -52 -91 0 
-20 1 2 3 4 5 6 8 9 10 12 13 14 15 16 17 18 19 21 22 23 24 25 26 27 28 29 30 31 38 39 40 41 42 43 44 45 46 96 97 98 99 100 102 103 104 125 175 176 182 183 193 194 195 196 197 198 199 200 201 202 203 204 230 233 234 235 236 237 238 239 240 241 242 243 244 -245 -246 -255 -35 -52 -91 0 
-21 1 2 3 4 5 6 8 9 10 12 13 14 15 16 17 18 19 20 22 23 24 25 26 27 28 29 30 31 38 39 40 41 42 43 44 45 46 96 97 98 99 100 102 103 104 125 175 176 182 183 193 194 195 196 197 198 199 200 201 202 203 204 230 233 234 235 236 237 238 239 240 241 242 243 244 -245 -246 -255 -35 -52 -91 0 
-22 1 2 3 4 5 6 8 9 10 12 13 14 15 16 17 18 19 20 21 23 24 25 26 27 28 29 30 31 38 39 40 41 42 43 44 45 46 96 97 98 99 100 102 103 104 125 175 176 182 183 193 194 195 196 197 198 199 200 201 202 203 204 230 233 234 235 236 237 238 239 240 241 242 243 244 -245 -246 -255 -35 -52 -91 0 
-23 1 2 3 4 5 6 8 9 10 12 13 14 15 16 17 18 19 20 21 22 24 25 26 27 28 29 30 31 38 39 40 41 42 43 44 45 46 96 97 98 99 100 102 103 104 125 175 176 182 183 193 194 195 196 197 198 199 200 201 202 203 204 230 233 234 235 236 237 238 239 240 241 242 243 244 -245 -246 -255 -35 -52 -91 0 
-24 1 2 3 4 5 6 8 9 10 12 13 14 15 16 17 18 19 20 21 22 23 25 26 27 28 29 30 31 38 39 40 41 42 43 44 45 46 96 97 98 99 100 102 103 104 125 175 176 182 183 193 194 195 196 197 198 199 200 201 202 203 204 230 233 234 235 236 237 238 239 240 241 242 243 244 -245 -246 -255 -35 -52 -91 0 
-25 1 2 3 4 5 6 8 9 10 12 13 14 15 16 17 18 19 20 21 22 23 24 26 27 28 29 30 31 38 39 40 41 42 43 44 45 46 96 97 98 99 100 102 103 104 125 175 176 182 183 193 194 195 196 197 198 199 200 201 202 203 204 230 233 234 235 236 237 238 239 240 241 242 243 244 -245 -246 -255 -35 -52 -91 0 
-26 1 2 3 4 5 6 8 9 10 12 13 14 15 16 17 18 19 20 21 22 23 24 25 27 28 29 30 31 38 39 40 41 42 43 44 45 46 96 97 98 99 100 102 103 104 125 175 176 182 183 193 194 195 196 197 198 199 200 201 202 203 204 230 233 234 235 236 237 238 239 240 241 242 243 244 -245 -246 -255 -35 -52 -91 0 
-27 1 2 3 4 5 6 8 9 10 12 13 14 15 16 17 18 19 20 21 22 23 24 25 26 28 29 30 31 38 39 40 41 42 43 44 45 46 96 97 98 99 100 102 103 104 125 175 176 182 183 193 194 195 196 197 198 199 200 201 202 203 204 230 233 234 235 236 237 238 239 240 241 242 243 244 -245 -246 -255 -35 -52 -91 0 
-28 1 2 3 4 5 6 8 9 10 12 13 14 15 16 17 18 19 20 21 22 23 24 25 26 27 29 30 31 38 39 40 41 42 43 44 45 46 96 97 98 99 100 102 103 104 125 175 176 182 183 193 194 195 196 197 198 199 200 201 202 203 204 230 233 234 235 236 237 238 239 240 241 242 243 244 -245 -246 -255 -35 -52 -91 0 
-29 1 2 3 4 5 6 8 9 10 12 13 14 15 16 17 18 19 20 21 22 23 24 25 26 27 28 30 31 38 39 40 41 42 43 44 45 46 96 97 98 99 100 102 103 104 125 175 176 182 183 193 194 195 196 197 198 199 200 201 202 203 204 230 233 234 235 236 237 238 239 240 241 242 243 244 -245 -246 -255 -35 -52 -91 0 
-30 1 2 3 4 5 6 8 9 10 12 13 14 15 16 17 18 19 20 21 22 23 24 25 26 27 28 29 31 38 39 40 41 42 43 44 45 46 96 97 98 99 100 102 103 104 125 175 176 182 183 193 194 195 196 197 198 199 200 201 202 203 204 230 233 234 235 236 237 238 239 240 241 242 243 244 -245 -246 -255 -35 -52 -91 0 
-31 1 2 3 4 5 6 8 9 10 12 13 14 15 16 17 18 19 20 21 22 23 24 25 26 27 28 29 30 38 39 40 41 42 43 44 45 46 96 97 98 99 100 102 103 104 125 175 176 182 183 193 194 195 196 197 198 199 200 201 202 203 204 230 233 234 235 236 237 238 239 240 241 242 243 244 -245 -246 -255 -35 -52 -91 0 
-32 -7 132 186 244 -245 -246 -255 -35 -52 -91 0 
-33 188 245 -246 -255 0 
-34 159 169 246 -245 -255 0 
-35 52 91 246 -245 -255 0 
-36 246 -245 -255 0 
-37 244 -245 -246 -255 -35 -52 -91 0 
-38 1 2 3 4 5 6 8 9 10 12 13 14 15 16 17 18 19 20 21 22 23 24 25 26 27 28 29 30 31 39 40 41 42 43 44 45 46 96 97 98 99 100 102 103 104 125 175 176 182 183 193 194 195 196 197 198 199 200 201 202 203 204 230 233 234 235 236 237 238 239 240 241 242 243 244 -245 -246 -255 -35 -52 -91 0 
-39 1 2 3 4 5 6 8 9 10 12 13 14 15 16 17 18 19 20 21 22 23 24 25 26 27 28 29 30 31 38 40 41 42 43 44 45 46 96 97 98 99 100 102 103 104 125 175 176 182 183 193 194 195 196 197 198 199 200 201 202 203 204 230 233 234 235 236 237 238 239 240 241 242 243 244 -245 -246 -255 -35 -52 -91 0 
-40 1 2 3 4 5 6 8 9 10 12 13 14 15 16 17 18 19 20 21 22 23 24 25 26 27 28 29 30 31 38 39 41 42 43 44 45 46 96 97 98 99 100 102 103 104 125 175 176 182 183 193 194 195 196 197 198 199 200 201 202 203 204 230 233 234 235 236 237 238 239 240 241 242 243 244 -245 -246 -255 -35 -52 -91 0 
-41 1 2 3 4 5 6 8 9 10 12 13 14 15 16 17 18 19 20 21 22 23 24 25 26 27 28 29 30 31 38 39 40 42 43 44 45 46 96 97 98 99 100 102 103 104 125 175 176 182 183 193 194 195 196 197 198 199 200 201 202 203 204 230 233 234 235 236 237 238 239 240 241 242 243 244 -245 -246 -255 -35 -52 -91 0 
-42 1 2 3 4 5 6 8 9 10 12 13 14 15 16 17 18 19 20 21 22 23 24 25 26 27 28 29 30 31 38 39 40 41 43 44 45 46 96 97 98 99 100 102 103 104 125 175 176 182 183 193 194 195 196 197 198 199 200 201 202 203 204 230 233 234 235 236 237 238 239 240 241 242 243 244 -245 -246 -255 -35 -52 -91 0 
-43 1 2 3 4 5 6 8 9 10 12 13 14 15 16 17 18 19 20 21 22 23 24 25 26 27 28 29 30 31 38 39 40 41 42 44 45 46 96 97 98 99 100 102 103 104 125 175 176 182 183 193 194 195 196 197 198 199 200 201 202 203 204 230 233 234 235 236 237 238 239 240 241 242 243 244 -245 -246 -255 -35 -52 -91 0 
-44 1 2 3 4 5 6 8 9 10 12 13 14 15 16 17 18 19 20 21 22 23 24 25 26 27 28 29 30 31 38 39 40 41 42 43 45 46 96 97 98 99 100 102 103 104 125 175 176 182 183 193 194 195 196 197 198 199 200 201 202 203 204 230 233 234 235 236 237 238 239 240 241 242 243 244 -245 -246 -255 -35 -52 -91 0 
-45 1 2 3 4 5 6 8 9 10 12 13 14 15 16 17 18 19 20 21 22 23 24 25 26 27 28 29 30 31 38 39 40 41 42 43 44 46 96 97 98 99 100 102 103 104 125 175 176 182 183 193 194 195 196 197 198 199 200 201 202 203 204 230 233 234 235 236 237 238 239 240 241 242 243 244 -245 -246 -255 -35 -52 -91 0 
-46 1 2 3 4 5 6 8 9 10 12 13 14 15 16 17 18 19 20 21 22 23 24 25 26 27 28 29 30 31 38 39 40 41 42 43 44 45 96 97 98 99 100 102 103 104 125 175 176 182 183 193 194 195 196 197 198 199 200 201 202 203 204 230 233 234 235 236 237 238 239 240 241 242 243 244 -245 -246 -255 -35 -52 -91 0 
-31 1 2 3 4 5 6 8 9 10 12 13 14 15 16 17 18 19 20 21 22 23 24 25 26 27 28 29 30 38 39 40 41 42 43 44 45 46 96 97 98 99 100 102 103 104 125 175 176 182 183 193 194 195 196 197 198 199 200 201 202 203 204 230 233 234 235 236 237 238 239 240 241 242 243 -32 244 -245 -246 -255 -35 -52 -91 0 
-47 73 84 94 152 154 179 181 206 245 -246 -255 0 
-48 244 -245 -246 -255 -35 -52 -91 0 
-49 246 -245 -255 0 
-50 245 -246 -255 0 
-51 68 89 122 144 228 245 -246 -255 0 
-52 35 91 245 -246 -255 0 
-53 61 82 90 93 218 245 -246 -255 0 
-54 128 129 -55 58 168 244 -245 -246 -255 -35 -52 -91 0 
-54 128 129 -56 88 108 161 214 224 244 -245 -246 -255 -35 -52 -91 0 
-51 68 89 122 144 228 -53 61 82 90 93 218 -7 132 186 245 -246 -255 0 
-57 72 245 -246 -255 0 
-58 55 168 245 -246 -255 0 
-47 73 84 94 152 154 179 181 206 245 -246 -255 0 
-59 245 -246 -255 0 
-60 174 247 -71 -124 -140 -150 -208 -245 -246 -255 0 
-60 174 248 -78 -85 -120 -123 -212 -221 -245 -246 -255 0 
-61 53 82 90 93 218 249 -81 -127 -145 -147 -184 -231 -232 -245 -246 -255 0 
-62 -63 95 133 250 -245 -246 -255 -70 -77 -229 0 
-64 105 107 109 119 163 165 178 217 223 -7 132 186 251 -245 -246 -255 -56 -88 -108 -161 -214 -224 0 
-65 151 -32 244 -245 -246 -255 -35 -52 -91 0 
-66 180 244 -245 -246 -255 -35 -52 -91 0 
-36 244 -245 -246 -255 -35 -52 -91 0 
-67 155 245 -246 -255 0 
-68 51 89 122 144 228 245 -246 -255 0 
-69 244 -245 -246 -255 -35 -52 -91 0 
-70 77 229 246 -245 -255 0 
-70 77 229 -7 132 186 244 -245 -246 -255 -35 -52 -91 0 
-65 151 244 -245 -246 -255 -35 -52 -91 0 
-71 124 140 150 208 245 -246 -255 0 
-72 57 -73 47 84 94 152 154 179 181 206 245 -246 -255 0 
-74 -7 132 186 244 -245 -246 -255 -35 -52 -91 0 
-51 68 89 122 144 228 -59 -7 132 186 245 -246 -255 0 
-58 55 168 -7 132 186 245 -246 -255 0 
-75 153 244 -245 -246 -255 -35 -52 -91 0 
-76 172 -77 70 229 -32 -7 132 186 246 -245 -255 0 
-78 85 120 123 212 221 -51 68 89 122 144 228 -79 -80 177 252 -245 -246 -255 -48 0 
-48 253 0 
-81 127 145 147 184 231 232 246 -245 -255 0 
-82 53 61 90 93 218 253 0 
-83 -7 132 186 245 -246 -255 0 
-68 51 89 122 144 228 -84 47 73 94 152 154 179 181 206 245 -246 -255 0 
-57 72 -67 155 245 -246 -255 0 
-85 78 120 123 212 221 -86 244 -245 -246 -255 -35 -52 -91 0 
-87 135 -54 128 129 -71 124 140 150 208 -86 244 -245 -246 -255 -35 -52 -91 0 
-88 56 108 161 214 224 -51 68 89 122 144 228 -7 132 186 245 -246 -255 0 
-89 51 68 122 144 228 -54 128 129 -90 53 61 82 93 218 -86 244 -245 -246 -255 -35 -52 -91 0 
-90 53 61 82 93 218 -54 128 129 -89 51 68 122 144 228 -86 244 -245 -246 -255 -35 -52 -91 0 
-58 55 168 -91 35 52 245 -246 -255 0 
-92 190 -93 53 61 82 90 218 -70 77 229 244 -245 -246 -255 -35 -52 -91 0 
-94 47 73 84 152 154 179 181 206 245 -246 -255 0 
-95 63 133 245 -246 -255 0 
-96 1 2 3 4 5 6 8 9 10 12 13 14 15 16 17 18 19 20 21 22 23 24 25 26 27 28 29 30 31 38 39 40 41 42 43 44 45 46 97 98 99 100 102 103 104 125 175 176 182 183 193 194 195 196 197 198 199 200 201 202 203 204 230 233 234 235 236 237 238 239 240 241 242 243 244 -245 -246 -255 -35 -52 -91 0 
-97 1 2 3 4 5 6 8 9 10 12 13 14 15 16 17 18 19 20 21 22 23 24 25 26 27 28 29 30 31 38 39 40 41 42 43 44 45 46 96 98 99 100 102 103 104 125 175 176 182 183 193 194 195 196 197 198 199 200 201 202 203 204 230 233 234 235 236 237 238 239 240 241 242 243 244 -245 -246 -255 -35 -52 -91 0 
-98 1 2 3 4 5 6 8 9 10 12 13 14 15 16 17 18 19 20 21 22 23 24 25 26 27 28 29 30 31 38 39 40 41 42 43 44 45 46 96 97 99 100 102 103 104 125 175 176 182 183 193 194 195 196 197 198 199 200 201 202 203 204 230 233 234 235 236 237 238 239 240 241 242 243 244 -245 -246 -255 -35 -52 -91 0 
-99 1 2 3 4 5 6 8 9 10 12 13 14 15 16 17 18 19 20 21 22 23 24 25 26 27 28 29 30 31 38 39 40 41 42 43 44 45 46 96 97 98 100 102 103 104 125 175 176 182 183 193 194 195 196 197 198 199 200 201 202 203 204 230 233 234 235 236 237 238 239 240 241 242 243 244 -245 -246 -255 -35 -52 -91 0 
-100 1 2 3 4 5 6 8 9 10 12 13 14 15 16 17 18 19 20 21 22 23 24 25 26 27 28 29 30 31 38 39 40 41 42 43 44 45 46 96 97 98 99 102 103 104 125 175 176 182 183 193 194 195 196 197 198 199 200 201 202 203 204 230 233 234 235 236 237 238 239 240 241 242 243 244 -245 -246 -255 -35 -52 -91 0 
-101 11 115 156 244 -245 -246 -255 -35 -52 -91 0 
-102 1 2 3 4 5 6 8 9 10 12 13 14 15 16 17 18 19 20 21 22 23 24 25 26 27 28 29 30 31 38 39 40 41 42 43 44 45 46 96 97 98 99 100 103 104 125 175 176 182 183 193 194 195 196 197 198 199 200 201 202 203 204 230 233 234 235 236 237 238 239 240 241 242 243 244 -245 -246 -255 -35 -52 -91 0 
-103 1 2 3 4 5 6 8 9 10 12 13 14 15 16 17 18 19 20 21 22 23 24 25 26 27 28 29 30 31 38 39 40 41 42 43 44 45 46 96 97 98 99 100 102 104 125 175 176 182 183 193 194 195 196 197 198 199 200 201 202 203 204 230 233 234 235 236 237 238 239 240 241 242 243 244 -245 -246 -255 -35 -52 -91 0 
-104 1 2 3 4 5 6 8 9 10 12 13 14 15 16 17 18 19 20 21 22 23 24 25 26 27 28 29 30 31 38 39 40 41 42 43 44 45 46 96 97 98 99 100 102 103 125 175 176 182 183 193 194 195 196 197 198 199 200 201 202 203 204 230 233 234 235 236 237 238 239 240 241 242 243 244 -245 -246 -255 -35 -52 -91 0 
-70 77 229 -74 244 -245 -246 -255 -35 -52 -91 0 
-36 -105 64 107 109 119 163 165 178 217 223 244 -245 -246 -255 -35 -52 -91 0 
-106 149 209 -107 64 105 109 119 163 165 178 217 223 244 -245 -246 -255 -35 -52 -91 0 
-108 56 88 161 214 224 -109 64 105 107 119 163 165 178 217 223 244 -245 -246 -255 -35 -52 -91 0 
-67 155 -7 132 186 245 -246 -255 0 
-110 245 -246 -255 0 
-111 245 -246 -255 0 
-112 -7 132 186 -113 245 -246 -255 0 
-114 -7 132 186 -113 245 -246 -255 0 
-115 11 101 156 -84 47 73 94 152 154 179 181 206 245 -246 -255 0 
-53 61 82 90 93 218 -7 132 186 245 -246 -255 0 
-116 -110 245 -246 -255 0 
-117 157 -7 132 186 -118 245 -246 -255 0 
-119 64 105 107 109 163 165 178 217 223 -32 244 -245 -246 -255 -35 -52 -91 0 
-120 78 85 123 212 221 -121 -113 245 -246 -255 0 
-47 73 84 94 152 154 179 181 206 245 -246 -255 0 
-53 61 82 90 93 218 -122 51 68 89 144 228 -59 -7 132 186 245 -246 -255 0 
-54 128 129 -90 53 61 82 93 218 -32 244 -245 -246 -255 -35 -52 -91 0 
-123 78 85 120 212 221 -32 244 -245 -246 -255 -35 -52 -91 0 
-59 -7 132 186 245 -246 -255 0 
-54 128 129 -71 124 140 150 208 -32 244 -245 -246 -255 -35 -52 -91 0 
-86 -32 246 -245 -255 0 
-124 71 140 150 208 -7 132 186 245 -246 -255 0 
-125 1 2 3 4 5 6 8 9 10 12 13 14 15 16 17 18 19 20 21 22 23 24 25 26 27 28 29 30 31 38 39 40 41 42 43 44 45 46 96 97 98 99 100 102 103 104 175 176 182 183 193 194 195 196 197 198 199 200 201 202 203 204 230 233 234 235 236 237 238 239 240 241 242 243 -7 132 186 245 -246 -255 0 
-49 -126 134 -113 246 -245 -255 0 
-48 -126 134 -113 246 -245 -255 0 
-53 61 82 90 93 218 -121 -113 -7 132 186 245 -246 -255 0 
-73 47 84 94 152 154 179 181 206 245 -246 -255 0 
-54 128 129 -89 51 68 122 144 228 -32 244 -245 -246 -255 -35 -52 -91 0 
-47 73 84 94 152 154 179 181 206 245 -246 -255 0 
-127 81 145 147 184 231 232 -67 155 245 -246 -255 0 
-128 54 129 244 -245 -246 -255 -35 -52 -91 0 
-129 54 128 244 -245 -246 -255 -35 -52 -91 0 
-130 254 -185 -245 -246 -255 0 
-131 -132 7 186 245 -246 -255 0 
-32 -133 63 95 255 -245 -246 0 
-134 126 246 -245 -255 0 
-92 190 244 -245 -246 -255 -35 -52 -91 0 
-53 61 82 90 93 218 -135 87 245 -246 -255 0 
-136 225 226 244 -245 -246 -255 -35 -52 -91 0 
-137 143 227 244 -245 -246 -255 -35 -52 -91 0 
-7 132 186 244 -245 -246 -255 -35 -52 -91 0 
-57 72 -7 132 186 245 -246 -255 0 
-50 -7 132 186 245 -246 -255 0 
-66 180 -7 132 186 244 -245 -246 -255 -35 -52 -91 0 
-138 244 -245 -246 -255 -35 -52 -91 0 
-32 244 -245 -246 -255 -35 -52 -91 0 
-139 -140 71 124 150 208 244 -245 -246 -255 -35 -52 -91 0 
-49 -77 70 229 246 -245 -255 0 
-137 143 227 -7 132 186 244 -245 -246 -255 -35 -52 -91 0 
-141 -142 216 246 -245 -255 0 
-49 -126 134 246 -245 -255 0 
-143 137 227 244 -245 -246 -255 -35 -52 -91 0 
-144 51 68 89 122 228 -7 132 186 244 -245 -246 -255 -35 -52 -91 0 
-145 81 127 147 184 231 232 -32 244 -245 -246 -255 -35 -52 -91 0 
-36 -132 7 186 -146 244 -245 -246 -255 -35 -52 -91 0 
-147 81 127 145 184 231 232 -32 244 -245 -246 -255 -35 -52 -91 0 
-148 244 -245 -246 -255 -35 -52 -91 0 
-54 128 129 -149 106 209 -86 244 -245 -246 -255 -35 -52 -91 0 
-150 71 124 140 208 245 -246 -255 0 
-54 128 129 -65 151 244 -245 -246 -255 -35 -52 -91 0 
-54 128 129 -151 65 244 -245 -246 -255 -35 -52 -91 0 
-152 47 73 84 94 154 179 181 206 245 -246 -255 0 
-153 75 -32 246 -245 -255 0 
-48 246 -245 -255 0 
-154 47 73 84 94 152 179 181 206 245 -246 -255 0 
-155 67 245 -246 -255 0 
-156 11 101 115 -49 244 -245 -246 -255 -35 -52 -91 0 
-156 11 101 115 -32 -157 117 -7 132 186 244 -245 -246 -255 -35 -52 -91 0 
-158 244 -245 -246 -255 -35 -52 -91 0 
-159 34 169 244 -245 -246 -255 -35 -52 -91 0 
-160 246 -245 -255 0 
-161 56 88 108 214 224 -162 245 -246 -255 0 
-163 64 105 107 109 119 165 178 217 223 245 -246 -255 0 
-164 245 -246 -255 0 
-70 77 229 244 -245 -246 -255 -35 -52 -91 0 
-149 106 209 245 -246 -255 0 
-165 64 105 107 109 119 163 178 217 223 245 -246 -255 0 
-73 47 84 94 152 154 179 181 206 245 -246 -255 0 
-156 11 101 115 244 -245 -246 -255 -35 -52 -91 0 
-166 -7 132 186 245 -246 -255 0 
-58 55 168 -133 63 95 245 -246 -255 0 
-117 157 -7 132 186 245 -246 -255 0 
-167 -76 172 -168 55 58 -59 -95 63 133 252 -245 -246 -255 -48 0 
-76 172 -168 55 58 -59 -95 63 133 256 -36 -245 -246 -255 0 
-133 63 95 253 0 
-169 34 159 244 -245 -246 -255 -35 -52 -91 0 
-170 254 -185 -245 -246 -255 0 
-54 128 129 -171 244 -245 -246 -255 -35 -52 -91 0 
-61 53 82 90 93 218 254 -185 -245 -246 -255 0 
-172 76 245 -246 -255 0 
-57 72 -73 47 84 94 152 154 179 181 206 245 -246 -255 0 
-173 -53 61 82 90 93 218 245 -246 -255 0 
-174 60 -91 35 52 -57 72 -50 245 -246 -255 0 
-175 1 2 3 4 5 6 8 9 10 12 13 14 15 16 17 18 19 20 21 22 23 24 25 26 27 28 29 30 31 38 39 40 41 42 43 44 45 46 96 97 98 99 100 102 103 104 125 176 182 183 193 194 195 196 197 198 199 200 201 202 203 204 230 233 234 235 236 237 238 239 240 241 242 243 245 -246 -255 0 
-87 135 245 -246 -255 0 
-54 128 129 -176 1 2 3 4 5 6 8 9 10 12 13 14 15 16 17 18 19 20 21 22 23 24 25 26 27 28 29 30 31 38 39 40 41 42 43 44 45 46 96 97 98 99 100 102 103 104 125 175 182 183 193 194 195 196 197 198 199 200 201 202 203 204 230 233 234 235 236 237 238 239 240 241 242 243 244 -245 -246 -255 -35 -52 -91 0 
-53 61 82 90 93 218 -47 73 84 94 152 154 179 181 206 245 -246 -255 0 
-157 117 -177 80 245 -246 -255 0 
-106 149 209 -54 128 129 -58 55 168 245 -246 -255 0 
-178 64 105 107 109 119 163 165 217 223 245 -246 -255 0 
-68 51 89 122 144 228 -7 132 186 245 -246 -255 0 
-174 60 -53 61 82 90 93 218 -179 47 73 84 94 152 154 181 206 245 -246 -255 0 
-180 66 -174 60 -53 61 82 90 93 218 -181 47 73 84 94 152 154 179 206 245 -246 -255 0 
-88 56 108 161 214 224 -53 61 82 90 93 218 -7 132 186 245 -246 -255 0 
-174 60 -53 61 82 90 93 218 -181 47 73 84 94 152 154 179 206 245 -246 -255 0 
-182 1 2 3 4 5 6 8 9 10 12 13 14 15 16 17 18 19 20 21 22 23 24 25 26 27 28 29 30 31 38 39 40 41 42 43 44 45 46 96 97 98 99 100 102 103 104 125 175 176 183 193 194 195 196 197 198 199 200 201 202 203 204 230 233 234 235 236 237 238 239 240 241 242 243 244 -245 -246 -255 -35 -52 -91 0 
-183 1 2 3 4 5 6 8 9 10 12 13 14 15 16 17 18 19 20 21 22 23 24 25 26 27 28 29 30 31 38 39 40 41 42 43 44 45 46 96 97 98 99 100 102 103 104 125 175 176 182 193 194 195 196 197 198 199 200 201 202 203 204 230 233 234 235 236 237 238 239 240 241 242 243 244 -245 -246 -255 -35 -52 -91 0 
-184 81 127 145 147 231 232 244 -245 -246 -255 -35 -52 -91 0 
-145 81 127 147 184 231 232 244 -245 -246 -255 -35 -52 -91 0 
-185 -32 244 -245 -246 -255 -35 -52 -91 0 
-32 -186 7 132 -187 207 244 -245 -246 -255 -35 -52 -91 0 
-32 253 0 
-188 33 -189 -7 132 186 245 -246 -255 0 
-190 92 244 -245 -246 -255 -35 -52 -91 0 
-79 245 -246 -255 0 
-49 -75 153 246 -245 -255 0 
-191 246 -245 -255 0 
-32 246 -245 -255 0 
-57 72 -86 245 -246 -255 0 
-192 -7 132 186 245 -246 -255 0 
-193 1 2 3 4 5 6 8 9 10 12 13 14 15 16 17 18 19 20 21 22 23 24 25 26 27 28 29 30 31 38 39 40 41 42 43 44 45 46 96 97 98 99 100 102 103 104 125 175 176 182 183 194 195 196 197 198 199 200 201 202 203 204 230 233 234 235 236 237 238 239 240 241 242 243 244 -245 -246 -255 -35 -52 -91 0 
-194 1 2 3 4 5 6 8 9 10 12 13 14 15 16 17 18 19 20 21 22 23 24 25 26 27 28 29 30 31 38 39 40 41 42 43 44 45 46 96 97 98 99 100 102 103 104 125 175 176 182 183 193 195 196 197 198 199 200 201 202 203 204 230 233 234 235 236 237 238 239 240 241 242 243 244 -245 -246 -255 -35 -52 -91 0 
-195 1 2 3 4 5 6 8 9 10 12 13 14 15 16 17 18 19 20 21 22 23 24 25 26 27 28 29 30 31 38 39 40 41 42 43 44 45 46 96 97 98 99 100 102 103 104 125 175 176 182 183 193 194 196 197 198 199 200 201 202 203 204 230 233 234 235 236 237 238 239 240 241 242 243 244 -245 -246 -255 -35 -52 -91 0 
-196 1 2 3 4 5 6 8 9 10 12 13 14 15 16 17 18 19 20 21 22 23 24 25 26 27 28 29 30 31 38 39 40 41 42 43 44 45 46 96 97 98 99 100 102 103 104 125 175 176 182 183 193 194 195 197 198 199 200 201 202 203 204 230 233 234 235 236 237 238 239 240 241 242 243 244 -245 -246 -255 -35 -52 -91 0 
-197 1 2 3 4 5 6 8 9 10 12 13 14 15 16 17 18 19 20 21 22 23 24 25 26 27 28 29 30 31 38 39 40 41 42 43 44 45 46 96 97 98 99 100 102 103 104 125 175 176 182 183 193 194 195 196 198 199 200 201 202 203 204 230 233 234 235 236 237 238 239 240 241 242 243 244 -245 -246 -255 -35 -52 -91 0 
-198 1 2 3 4 5 6 8 9 10 12 13 14 15 16 17 18 19 20 21 22 23 24 25 26 27 28 29 30 31 38 39 40 41 42 43 44 45 46 96 97 98 99 100 102 103 104 125 175 176 182 183 193 194 195 196 197 199 200 201 202 203 204 230 233 234 235 236 237 238 239 240 241 242 243 244 -245 -246 -255 -35 -52 -91 0 
-199 1 2 3 4 5 6 8 9 10 12 13 14 15 16 17 18 19 20 21 22 23 24 25 26 27 28 29 30 31 38 39 40 41 42 43 44 45 46 96 97 98 99 100 102 103 104 125 175 176 182 183 193 194 195 196 197 198 200 201 202 203 204 230 233 234 235 236 237 238 239 240 241 242 243 244 -245 -246 -255 -35 -52 -91 0 
-200 1 2 3 4 5 6 8 9 10 12 13 14 15 16 17 18 19 20 21 22 23 24 25 26 27 28 29 30 31 38 39 40 41 42 43 44 45 46 96 97 98 99 100 102 103 104 125 175 176 182 183 193 194 195 196 197 198 199 201 202 203 204 230 233 234 235 236 237 238 239 240 241 242 243 244 -245 -246 -255 -35 -52 -91 0 
-201 1 2 3 4 5 6 8 9 10 12 13 14 15 16 17 18 19 20 21 22 23 24 25 26 27 28 29 30 31 38 39 40 41 42 43 44 45 46 96 97 98 99 100 102 103 104 125 175 176 182 183 193 194 195 196 197 198 199 200 202 203 204 230 233 234 235 236 237 238 239 240 241 242 243 244 -245 -246 -255 -35 -52 -91 0 
-202 1 2 3 4 5 6 8 9 10 12 13 14 15 16 17 18 19 20 21 22 23 24 25 26 27 28 29 30 31 38 39 40 41 42 43 44 45 46 96 97 98 99 100 102 103 104 125 175 176 182 183 193 194 195 196 197 198 199 200 201 203 204 230 233 234 235 236 237 238 239 240 241 242 243 244 -245 -246 -255 -35 -52 -91 0 
-203 1 2 3 4 5 6 8 9 10 12 13 14 15 16 17 18 19 20 21 22 23 24 25 26 27 28 29 30 31 38 39 40 41 42 43 44 45 46 96 97 98 99 100 102 103 104 125 175 176 182 183 193 194 195 196 197 198 199 200 201 202 204 230 233 234 235 236 237 238 239 240 241 242 243 244 -245 -246 -255 -35 -52 -91 0 
-204 1 2 3 4 5 6 8 9 10 12 13 14 15 16 17 18 19 20 21 22 23 24 25 26 27 28 29 30 31 38 39 40 41 42 43 44 45 46 96 97 98 99 100 102 103 104 125 175 176 182 183 193 194 195 196 197 198 199 200 201 202 203 230 233 234 235 236 237 238 239 240 241 242 243 244 -245 -246 -255 -35 -52 -91 0 
-205 -7 132 186 245 -246 -255 0 
-206 47 73 84 94 152 154 179 181 245 -246 -255 0 
-76 172 -92 190 244 -245 -246 -255 -35 -52 -91 0 
-207 187 244 -245 -246 -255 -35 -52 -91 0 
-176 1 2 3 4 5 6 8 9 10 12 13 14 15 16 17 18 19 20 21 22 23 24 25 26 27 28 29 30 31 38 39 40 41 42 43 44 45 46 96 97 98 99 100 102 103 104 125 175 182 183 193 194 195 196 197 198 199 200 201 202 203 204 230 233 234 235 236 237 238 239 240 241 242 243 -32 244 -245 -246 -255 -35 -52 -91 0 
-208 71 124 140 150 -32 244 -245 -246 -255 -35 -52 -91 0 
-132 7 186 -32 244 -245 -246 -255 -35 -52 -91 0 
-54 128 129 -32 -132 7 186 244 -245 -246 -255 -35 -52 -91 0 
-209 106 149 -32 -210 213 244 -245 -246 -255 -35 -52 -91 0 
-211 244 -245 -246 -255 -35 -52 -91 0 
-32 -63 95 133 246 -245 -255 0 
-212 78 85 120 123 221 -132 7 186 -32 244 -245 -246 -255 -35 -52 -91 0 
-211 -7 132 186 244 -245 -246 -255 -35 -52 -91 0 
-32 -132 7 186 -213 210 -146 244 -245 -246 -255 -35 -52 -91 0 
-55 58 168 245 -246 -255 0 
-159 34 169 -7 132 186 244 -245 -246 -255 -35 -52 -91 0 
-90 53 61 82 93 218 245 -246 -255 0 
-54 128 129 -214 56 88 108 161 224 244 -245 -246 -255 -35 -52 -91 0 
-85 78 120 123 212 221 -63 95 133 244 -245 -246 -255 -35 -52 -91 0 
-49 -186 7 132 246 -245 -255 0 
-215 245 -246 -255 0 
-84 47 73 94 152 154 179 181 206 245 -246 -255 0 
-156 11 101 115 -32 -157 117 244 -245 -246 -255 -35 -52 -91 0 
-142 216 246 -245 -255 0 
-216 142 246 -245 -255 0 
-217 64 105 107 109 119 163 165 178 223 -218 53 61 82 90 93 -219 -7 132 186 244 -245 -246 -255 -35 -52 -91 0 
-220 -160 253 0 
-221 78 85 120 123 212 245 -246 -255 0 
-167 -222 245 -246 -255 0 
-223 64 105 107 109 119 163 165 178 217 245 -246 -255 0 
-49 -76 172 246 -245 -255 0 
-106 149 209 246 -245 -255 0 
-224 56 88 108 161 214 246 -245 -255 0 
-225 136 226 246 -245 -255 0 
-226 136 225 244 -245 -246 -255 -35 -52 -91 0 
-227 137 143 244 -245 -246 -255 -35 -52 -91 0 
-92 190 -228 51 68 89 122 144 -66 180 244 -245 -246 -255 -35 -52 -91 0 
-153 75 -76 172 -101 11 115 156 -229 70 77 244 -245 -246 -255 -35 -52 -91 0 
-230 1 2 3 4 5 6 8 9 10 12 13 14 15 16 17 18 19 20 21 22 23 24 25 26 27 28 29 30 31 38 39 40 41 42 43 44 45 46 96 97 98 99 100 102 103 104 125 175 176 182 183 193 194 195 196 197 198 199 200 201 202 203 204 233 234 235 236 237 238 239 240 241 242 243 253 0 
-231 81 127 145 147 184 232 253 0 
-232 81 127 145 147 184 231 253 0 
-233 1 2 3 4 5 6 8 9 10 12 13 14 15 16 17 18 19 20 21 22 23 24 25 26 27 28 29 30 31 38 39 40 41 42 43 44 45 46 96 97 98 99 100 102 103 104 125 175 176 182 183 193 194 195 196 197 198 199 200 201 202 203 204 230 234 235 236 237 238 239 240 241 242 243 253 0 
-51 68 89 122 144 228 -47 73 84 94 152 154 179 181 206 245 -246 -255 0 
-234 1 2 3 4 5 6 8 9 10 12 13 14 15 16 17 18 19 20 21 22 23 24 25 26 27 28 29 30 31 38 39 40 41 42 43 44 45 46 96 97 98 99 100 102 103 104 125 175 176 182 183 193 194 195 196 197 198 199 200 201 202 203 204 230 233 235 236 237 238 239 240 241 242 243 244 -245 -246 -255 -35 -52 -91 0 
-235 1 2 3 4 5 6 8 9 10 12 13 14 15 16 17 18 19 20 21 22 23 24 25 26 27 28 29 30 31 38 39 40 41 42 43 44 45 46 96 97 98 99 100 102 103 104 125 175 176 182 183 193 194 195 196 197 198 199 200 201 202 203 204 230 233 234 236 237 238 239 240 241 242 243 244 -245 -246 -255 -35 -52 -91 0 
-236 1 2 3 4 5 6 8 9 10 12 13 14 15 16 17 18 19 20 21 22 23 24 25 26 27 28 29 30 31 38 39 40 41 42 43 44 45 46 96 97 98 99 100 102 103 104 125 175 176 182 183 193 194 195 196 197 198 199 200 201 202 203 204 230 233 234 235 237 238 239 240 241 242 243 244 -245 -246 -255 -35 -52 -91 0 
-237 1 2 3 4 5 6 8 9 10 12 13 14 15 16 17 18 19 20 21 22 23 24 25 26 27 28 29 30 31 38 39 40 41 42 43 44 45 46 96 97 98 99 100 102 103 104 125 175 176 182 183 193 194 195 196 197 198 199 200 201 202 203 204 230 233 234 235 236 238 239 240 241 242 243 244 -245 -246 -255 -35 -52 -91 0 
-238 1 2 3 4 5 6 8 9 10 12 13 14 15 16 17 18 19 20 21 22 23 24 25 26 27 28 29 30 31 38 39 40 41 42 43 44 45 46 96 97 98 99 100 102 103 104 125 175 176 182 183 193 194 195 196 197 198 199 200 201 202 203 204 230 233 234 235 236 237 239 240 241 242 243 244 -245 -246 -255 -35 -52 -91 0 
-239 1 2 3 4 5 6 8 9 10 12 13 14 15 16 17 18 19 20 21 22 23 24 25 26 27 28 29 30 31 38 39 40 41 42 43 44 45 46 96 97 98 99 100 102 103 104 125 175 176 182 183 193 194 195 196 197 198 199 200 201 202 203 204 230 233 234 235 236 237 238 240 241 242 243 244 -245 -246 -255 -35 -52 -91 0 
-240 1 2 3 4 5 6 8 9 10 12 13 14 15 16 17 18 19 20 21 22 23 24 25 26 27 28 29 30 31 38 39 40 41 42 43 44 45 46 96 97 98 99 100 102 103 104 125 175 176 182 183 193 194 195 196 197 198 199 200 201 202 203 204 230 233 234 235 236 237 238 239 241 242 243 244 -245 -246 -255 -35 -52 -91 0 
-241 1 2 3 4 5 6 8 9 10 12 13 14 15 16 17 18 19 20 21 22 23 24 25 26 27 28 29 30 31 38 39 40 41 42 43 44 45 46 96 97 98 99 100 102 103 104 125 175 176 182 183 193 194 195 196 197 198 199 200 201 202 203 204 230 233 234 235 236 237 238 239 240 242 243 244 -245 -246 -255 -35 -52 -91 0 
-242 1 2 3 4 5 6 8 9 10 12 13 14 15 16 17 18 19 20 21 22 23 24 25 26 27 28 29 30 31 38 39 40 41 42 43 44 45 46 96 97 98 99 100 102 103 104 125 175 176 182 183 193 194 195 196 197 198 199 200 201 202 203 204 230 233 234 235 236 237 238 239 240 241 243 244 -245 -246 -255 -35 -52 -91 0 
-243 1 2 3 4 5 6 8 9 10 12 13 14 15 16 17 18 19 20 21 22 23 24 25 26 27 28 29 30 31 38 39 40 41 42 43 44 45 46 96 97 98 99 100 102 103 104 125 175 176 182 183 193 194 195 196 197 198 199 200 201 202 203 204 230 233 234 235 236 237 238 239 240 241 242 244 -245 -246 -255 -35 -52 -91 0 
